Version identifier: 12.10.0.0 | 2019-11-26 | 843d4de
CPXPARAM_LPMethod                                4
CPXPARAM_Threads                                 1
CPXPARAM_SolutionType                            2
CPXPARAM_TimeLimit                               10000
Tried aggregator 1 time.
LP Presolve eliminated 149 rows and 9115 columns.
Aggregator did 1327 substitutions.
Reduced LP has 4519 rows, 187030 columns, and 553236 nonzeros.
Presolve time = 0.92 sec. (247.92 ticks)
Parallel mode: none, using 1 thread for barrier
Number of nonzeros in lower triangle of A*A' = 29024
Using Approximate Minimum Degree ordering
Total time for automatic ordering = 0.02 sec. (6.87 ticks)
Summary statistics for Cholesky factor:
  Rows in Factor            = 4519
  Integer space required    = 18324
  Total non-zeros in factor = 116543
  Total FP ops to factor    = 4052041
 Itn      Primal Obj        Dual Obj  Prim Inf Upper Inf  Dual Inf Inf Ratio
   0   4.6142881e+07   0.0000000e+00  1.50e+02  0.00e+00  1.79e+08  1.00e+00
   1   3.0913370e+05   6.3601478e-04  1.00e+00  0.00e+00  1.20e+06  9.73e-03
   2   1.4772706e+03   4.3073708e-04  4.80e-03  0.00e+00  1.13e+04  1.23e+00
   3   3.9678449e+01   8.0402537e-02  1.29e-04  0.00e+00  3.14e+01  8.91e+02
   4   1.1749494e+01   1.4442357e+00  3.10e-05  0.00e+00  1.63e+01  1.89e+03
   5   1.1285194e+01   1.5752558e+00  2.94e-05  0.00e+00  1.50e+01  2.18e+03
   6   1.1270693e+01   1.6430993e+00  2.93e-05  0.00e+00  1.35e+01  2.58e+03
   7   7.9529935e+00   2.0041972e+00  1.77e-05  0.00e+00  1.04e+01  4.08e+03
   8   7.9512311e+00   1.7907221e+00  1.77e-05  0.00e+00  8.54e+00  5.26e+03
   9   6.9075979e+00   1.9982825e+00  1.43e-05  0.00e+00  6.23e+00  8.16e+03
  10   5.2542512e+00   1.8821283e+00  9.62e-06  0.00e+00  1.71e+00  1.46e+05
  11   3.7077059e+00   1.9462485e+00  5.13e-06  0.00e+00  2.50e-01  9.15e+05
  12   2.9599039e+00   1.9515091e+00  3.11e-06  0.00e+00  1.73e-01  6.09e+05
  13   2.7584654e+00   1.9570326e+00  2.10e-05  0.00e+00  1.04e-01  6.65e+05
  14   2.6458182e+00   1.9589560e+00  1.81e-05  0.00e+00  6.24e-02  7.77e+05
  15   2.4883649e+00   1.9590031e+00  1.41e-05  0.00e+00  2.48e-02  9.94e+05
  16   2.2499462e+00   1.9597415e+00  8.67e-06  0.00e+00  1.95e-02  1.08e+06
  17   2.1156009e+00   1.9607537e+00  1.83e-05  0.00e+00  1.46e-02  1.40e+06
  18   2.1042312e+00   1.9609782e+00  4.74e-05  0.00e+00  1.37e-02  1.48e+06
  19   2.0589414e+00   1.9614712e+00  6.75e-05  0.00e+00  1.17e-02  1.73e+06
  20   2.0589244e+00   1.9614840e+00  7.39e-05  0.00e+00  1.17e-02  1.73e+06
  21   2.0588782e+00   1.9614845e+00  7.40e-05  0.00e+00  1.17e-02  1.73e+06
  22   2.0586637e+00   1.9614985e+00  7.39e-05  0.00e+00  1.17e-02  1.74e+06
  23   2.0586623e+00   1.9614664e+00  7.42e-05  0.00e+00  1.17e-02  1.74e+06
  24   2.0586777e+00   1.9614685e+00  7.46e-05  0.00e+00  1.17e-02  1.74e+06
  25   2.0245227e+00   1.9625810e+00  6.00e-05  0.00e+00  6.93e-03  2.95e+06
  26   2.0243029e+00   1.9628079e+00  5.99e-05  0.00e+00  5.72e-03  3.58e+06
  27   2.0235436e+00   1.9631131e+00  5.91e-05  0.00e+00  3.75e-03  5.28e+06
  28   2.0194299e+00   1.9631503e+00  6.28e-05  0.00e+00  3.38e-03  5.72e+06
  29   2.0191466e+00   1.9631592e+00  6.84e-05  0.00e+00  3.36e-03  5.74e+06
  30   2.0160979e+00   1.9631965e+00  9.26e-05  0.00e+00  3.12e-03  6.06e+06
  31   1.9927776e+00   1.9633964e+00  5.81e-05  0.00e+00  2.06e-03  8.86e+06
  32   1.9927509e+00   1.9633997e+00  6.29e-05  0.00e+00  2.05e-03  8.87e+06
  33   1.9895292e+00   1.9634709e+00  7.26e-05  0.00e+00  1.71e-03  1.04e+07
  34   1.9856410e+00   1.9634802e+00  6.45e-05  0.00e+00  1.65e-03  1.07e+07
  35   1.9828297e+00   1.9635054e+00  1.05e-04  0.00e+00  1.55e-03  1.14e+07
  36   1.9827273e+00   1.9635154e+00  1.06e-04  0.00e+00  1.49e-03  1.18e+07
  37   1.9813357e+00   1.9635257e+00  1.52e-04  0.00e+00  1.46e-03  1.21e+07
  38   1.9813159e+00   1.9635253e+00  1.60e-04  0.00e+00  1.46e-03  1.21e+07
  39   1.9805226e+00   1.9635416e+00  1.70e-04  0.00e+00  1.38e-03  1.27e+07
  40   1.9805237e+00   1.9635419e+00  1.69e-04  0.00e+00  1.38e-03  1.27e+07
  41   1.9805018e+00   1.9635943e+00  1.69e-04  0.00e+00  1.13e-03  1.54e+07
  42   1.9803315e+00   1.9636052e+00  1.77e-04  0.00e+00  1.08e-03  1.60e+07
  43   1.9795115e+00   1.9636318e+00  1.71e-04  0.00e+00  9.14e-04  1.84e+07
  44   1.9795099e+00   1.9636306e+00  1.11e-02  0.00e+00  9.14e-04  1.84e+07
  45   1.9795124e+00   1.9636316e+00  1.10e+01  0.00e+00  9.14e-04  1.84e+07
  46   1.9794841e+00   1.9636316e+00  4.85e+16  0.00e+00  9.14e-04  1.84e+07
  47   1.9794841e+00   1.9636316e+00  6.59e+30  0.00e+00  9.14e-04  1.84e+07
  48   1.9794840e+00   1.9635845e+00  6.54e+38  0.00e+00  9.14e-04  1.77e+05
  49   1.9794304e+00   1.9635820e+00  5.58e+41  0.00e+00  9.14e-04  1.74e+05
  50   1.9793363e+00   1.9631172e+00  7.87e+41  0.00e+00  9.13e-04  1.06e+05
  51   1.9787475e+00   1.9600183e+00  1.09e+42  0.00e+00  9.12e-04  6.86e+04
  52   1.9743455e+00   1.9555748e+00  1.60e+42  0.00e+00  9.10e-04  6.18e+04
  53   1.9727597e+00   1.9541929e+00  1.64e+42  0.00e+00  9.09e-04  6.14e+04
  54   1.9607324e+00   1.8691489e+00  1.94e+42  0.00e+00  8.70e-04  4.38e+04
  *    2.9599039e+00   1.9515091e+00  3.11e-06  0.00e+00  1.73e-01  6.09e+05
Barrier time = 4.40 sec. (3676.70 ticks)

Total time on 1 threads = 4.40 sec. (3676.70 ticks)
Solver name: CPLEX
Solve time: 4.405322037
Termination status: OTHER_ERROR
Result count: 1
Primal status: FEASIBLE_POINT
Dual status: FEASIBLE_POINT
